(set-option :smt.auto-config false)
(set-option :smt.mbqi false)
(set-option :sat.random_seed 488)
(set-option :smt.random_seed 599)
(set-option :nlsat.seed 611)
(set-option :memory_max_size 6000)
(declare-fun f (Int Int) Bool)
(declare-sort RegExStr 0)
(declare-sort RMode 0)
(declare-fun a () Int)
(assert (! (forall ((x0py0 Int)(y0py0 Int)) (! (or (<= x0py0 a) (= x0py0 y0py0)) :pattern ((f x0py0 y0py0)) )) :named A0))
(assert (! (forall ((x1py0 Int)(y1py0 Int)) (! (or (not (<= x1py0 a)) (= x1py0 (* (- 1) y1py0))) :pattern ((f x1py0 y1py0)) )) :named A1))
(check-sat)
(get-info :reason-unknown)